n_res = 4;
rcap = [11, 12, 24, 52];
rtype = [1, 1, 2, 2];
n_tasks = 16;
modes = [ {1}, {2}, {3}, {4}, {5}, {6}, {7}, {8}, {9}, {10}, {11}, {12}, {13}, {14}, {15}, {16} ];
succ = [ {7, 9, 13}, {12}, {4, 8, 9}, {5}, {6, 7}, {12, 14}, {10, 11, 14}, {10, 11, 12}, {11, 14, 16}, {15, 16}, {15}, {13}, {15, 16}, {}, {}, {} ];
n_opt = 16;
dur = [4, 1, 2, 4, 4, 7, 6, 9, 8, 5, 3, 8, 7, 5, 3, 9];
rreq = [|  0,  4,  0,  9,  0,  0,  0,  2,  0,  3,  0,  0,  0,  6,  1,  0
        |  6,  0,  5,  0,  4,  4,  7,  0,  2,  0,  7,  5,  6,  0,  0,  5
        |  0,  0,  6,  0,  0,  0,  2,  0,  2,  0,  5,  8,  0,  1,  0,  0
        |  1,  7,  0, 10,  6,  6,  0,  5,  0,  4,  0,  0,  5,  0,  4,  4 |];
